100
128
26
39
35
6
19
44
62
2
5
58
36
55
4
48
27
17
25
32
64
8
4
9
14
8
11
35
26
3
41
51
58
25
32
28
11
24
19
15
18
18
24
58
48
25
28
62
16
22
43
45
43
43
37
48
37
32
1
18
60
26
60
1
16
47
45
52
19
34
44
31
59
29
40
47
60
20
53
43
30
1
40
41
27
23
26
63
48
55
39
19
41
25
11
1
31
64
43
52
38
38